4221
3808
3783
345
2363
10664
23602
6199
20089
6881
5220
603
2510
4232
5163
11540
8527
14668
24325
11473
7211
7055
4215
5637
9310
9117
6807
5770
18400
1799
15210
6863
10486
7613
8268
3287
15381
11165
11587
3475
12470
9723
4641
11492
5897
0
5137
7771
7448
11268
1306
18309
758
12951
3082
6781
672
9288
8490
11026
3980
8835
5505
14480
11997
6197
16286
8797
14568
5078
9003
13441
5748
3645
4032
2492
6631
20963
4423
7928
1540
4232
29631
23197
1901
16928
3628
13462
9064
18672
2635
4324
7408
7650
5150
1019
2021
2831
1531
